Route #1: 46
Route #2: 6
Route #3: 27
Route #4: 18
Route #5: 47 12
Route #6: 44 15 45 33 39 10
Route #7: 32 11 38 5
Route #8: 37 17 4 41 19 42 40
Route #9: 2 29 21 50 16 9
Route #10: 48 23 7 43 24
Route #11: 14 25 13
Route #12: 3 20 35 36
Route #13: 49 30 34
Route #14: 1 22 28 31 26 8
cost: 827.6798522766843
